1,1,8,1,15,1,5,1,13,1,5,3,18,1,3,2,19,3,20,1,15,2,2,1,9,1,12,2,10,3,16,2,7,5,16,3,16,4,15,5,9,4,2,5;11,1,7,1,5,2,3,1,12,1,6,2,1,2,20,2,18,2,16,1,17,3,2,2,9,2,3,3,2,3,12,3,19,5,6,4,20,5,9,5;14,1,17,1,14,2,19,2,5,4,17,2,13,2,1,3,10,2,17,4,15,4,20,3,18,4,9,3,12,4,2,4,11,4,6,5,11,5;10,1,19,1,8,3,8,4,4,2,4,3,7,2,11,2,14,4,1,4,7,4,4,5,19,4,10,4,20,4,13,4,18,5,3,5,16,5;4,1,8,2,6,1,8,5,14,3,4,4,7,3,15,3,5,5,18,3,1,5,13,3,14,5,3,4,6,3,10,5,11,3,17,5,12,5,13,5;
